GLPSOL: GLPK LP/MIP Solver, v4.64
Parameter(s) specified in the command line:
 -m shortest_paths_without_parity.mod -d data/data_100_99.dat -o outputs/output_100_99.txt
Reading model section from shortest_paths_without_parity.mod...
36 lines were read
Reading data section from data/data_100_99.dat...
data/data_100_99.dat:2448: warning: final NL missing before end of file
2448 lines were read
Generating obj...
Generating cons1O1...
Generating cons1O2...
Generating cons1NotOD...
Generating cons1D1...
Generating cons1D2...
Generating umradio...
Generating Sim...
Model has been successfully generated
GLPK Integer Optimizer, v4.64
2597 rows, 2441 columns, 12176 non-zeros
2441 integer variables, all of which are binary
Preprocessing...
152 rows, 2391 columns, 7144 non-zeros
2391 integer variables, all of which are binary
Scaling...
 A: min|aij| =  1.000e+00  max|aij| =  1.000e+00  ratio =  1.000e+00
Problem data seem to be well scaled
Constructing initial basis...
Size of triangular part is 151
Solving LP relaxation...
GLPK Simplex Optimizer, v4.64
152 rows, 2391 columns, 7144 non-zeros
      0: obj =   1.800000000e+01 inf =   1.000e+00 (1)
      1: obj =   1.006900000e+04 inf =   0.000e+00 (0)
*   137: obj =   3.300000000e+01 inf =   0.000e+00 (0)
OPTIMAL LP SOLUTION FOUND
Integer optimization begins...
+   137: mip =     not found yet >=              -inf        (1; 0)
+   137: >>>>>   3.300000000e+01 >=   3.300000000e+01   0.0% (1; 0)
+   137: mip =   3.300000000e+01 >=     tree is empty   0.0% (0; 1)
INTEGER OPTIMAL SOLUTION FOUND
Time used:   0.0 secs
Memory used: 7.1 Mb (7456882 bytes)
Writing MIP solution to 'outputs/output_100_99.txt'...
